100
32
12
21
9
1
4
15
18
18
13
22
13
19
16
1
17
20
17
20
3
27
7
7
17
3
24
12
27
14
17
1
6
17
19
1
24
19
23
6
29
1
23
12
11
3
25
18
26
2
4
20
3
24
17
3
21
22
23
2
22
10
2
11
7
2
22
22
1
9
16
22
2
11
22
10
10
23
6
13
21
2
14
7
4
22
5
13
16
12
12
7
16
12
12
12
14
6
13
13
13
12